100
150
100
99
99
98
96
96
96
95
94
92
91
90
90
89
89
88
88
88
88
86
86
85
85
85
84
83
83
83
83
82
82
81
80
80
79
79
77
77
77
75
75
74
72
71
70
70
70
69
69
69
68
68
67
65
64
64
62
62
61
59
59
57
57
54
54
54
54
53
53
52
50
50
49
48
48
48
46
43
42
42
42
39
39
38
38
37
37
37
36
36
35
34
34
34
34
33
32
32
30
30
